Minimize
	value: tt

Subject to
tt + 1000 s_1_1 > 0.0
tt - t_1_1 - 1000.000000 s_1_1  + 0.000000 s_1_8  + 0.000000 s_1_7  > -999.344922
tt + 1000 s_2_1 > 0.0
tt - t_2_1 - 1000.000000 s_2_1  + 0.000000 s_2_8  + 0.000000 s_2_7  > -999.055417
tt + 1000 s_1_2 > 0.0
tt - t_1_2 - 1000.000000 s_1_2  + 0.000000 s_1_7  > -999.357631
tt + 1000 s_2_2 > 0.0
tt - t_2_2 - 1000.000000 s_2_2  + 0.000000 s_2_7  > -999.109941
tt + 1000 s_1_3 > 0.0
tt - t_1_3 - 1000.000000 s_1_3  + 0.000000 s_1_8  + 0.000000 s_1_7  > -999.950300
tt + 1000 s_2_3 > 0.0
tt - t_2_3 - 1000.000000 s_2_3  + 0.000000 s_2_8  + 0.000000 s_2_7  > -999.898508
tt + 1000 s_1_4 > 0.0
tt - t_1_4 - 1000.000000 s_1_4  + 0.000000 s_1_7  > -999.928956
tt + 1000 s_2_4 > 0.0
tt - t_2_4 - 1000.000000 s_2_4  + 0.000000 s_2_7  > -999.861422
tt + 1000 s_1_5 > 0.0
tt - t_1_5 - 1000.000000 s_1_5  + 0.000000 s_1_8  > -999.706589
tt + 1000 s_2_5 > 0.0
tt - t_2_5 - 1000.000000 s_2_5  + 0.000000 s_2_8  > -999.596311
tt + 1000 s_1_6 > 0.0
tt - t_1_6 - 1000.000000 s_1_6  + 0.000000 s_1_4  + 0.000000 s_1_2  + 0.000000 s_1_5  + 0.000000 s_1_7  + 0.000000 s_1_1  + 0.000000 s_1_3  > -999.977800
tt + 1000 s_2_6 > 0.0
tt - t_2_6 - 1000.000000 s_2_6  + 0.000000 s_2_4  + 0.000000 s_2_2  + 0.000000 s_2_5  + 0.000000 s_2_7  + 0.000000 s_2_1  + 0.000000 s_2_3  > -999.952500
tt + 1000 s_1_7 > 0.0
tt - t_1_7 - 1000.000000 s_1_7  > -999.217100
tt + 1000 s_2_7 > 0.0
tt - t_2_7 - 1000.000000 s_2_7  > -998.846889
tt + 1000 s_1_8 > 0.0
tt - t_1_8 - 1000.000000 s_1_8  > -999.227600
tt + 1000 s_2_8 > 0.0
tt - t_2_8 - 1000.000000 s_2_8  > -998.820173
s_1_1 + s_2_1 = 1
s_1_2 + s_2_2 = 1
s_1_3 + s_2_3 = 1
s_1_4 + s_2_4 = 1
s_1_5 + s_2_5 = 1
s_1_6 + s_2_6 = 1
s_1_7 + s_2_7 = 1
s_1_8 + s_2_8 = 1
s_1_1 + s_1_2 + 1000 r_1_1_2 >= 2
- s_1_1 - s_1_2 - 1000 r_1_1_2 >= -1001
t_1_1 - t_1_2 - 1000.000000 u_1_1_2 - 0.000000 s_1_2  + 0.000000 s_1_7  + 2000.000000 r_1_1_2 > -999.357631
s_2_1 + s_2_2 + 1000 r_2_1_2 >= 2
- s_2_1 - s_2_2 - 1000 r_2_1_2 >= -1001
t_2_1 - t_2_2 - 1000.000000 u_2_1_2 - 0.000000 s_2_2  + 0.000000 s_2_7  + 2000.000000 r_2_1_2 > -999.109941
s_1_1 + s_1_3 + 1000 r_1_1_3 >= 2
- s_1_1 - s_1_3 - 1000 r_1_1_3 >= -1001
t_1_1 - t_1_3 - 1000.000000 u_1_1_3 - 0.000000 s_1_3  + 0.000000 s_1_8  + 0.000000 s_1_7  + 2000.000000 r_1_1_3 > -999.950300
s_2_1 + s_2_3 + 1000 r_2_1_3 >= 2
- s_2_1 - s_2_3 - 1000 r_2_1_3 >= -1001
t_2_1 - t_2_3 - 1000.000000 u_2_1_3 - 0.000000 s_2_3  + 0.000000 s_2_8  + 0.000000 s_2_7  + 2000.000000 r_2_1_3 > -999.898508
s_1_1 + s_1_4 + 1000 r_1_1_4 >= 2
- s_1_1 - s_1_4 - 1000 r_1_1_4 >= -1001
t_1_1 - t_1_4 - 1000.000000 u_1_1_4 - 0.000000 s_1_4  + 0.000000 s_1_7  + 2000.000000 r_1_1_4 > -999.928956
s_2_1 + s_2_4 + 1000 r_2_1_4 >= 2
- s_2_1 - s_2_4 - 1000 r_2_1_4 >= -1001
t_2_1 - t_2_4 - 1000.000000 u_2_1_4 - 0.000000 s_2_4  + 0.000000 s_2_7  + 2000.000000 r_2_1_4 > -999.861422
s_1_1 + s_1_5 + 1000 r_1_1_5 >= 2
- s_1_1 - s_1_5 - 1000 r_1_1_5 >= -1001
t_1_1 - t_1_5 - 1000.000000 u_1_1_5 - 0.000000 s_1_5  + 0.000000 s_1_8  + 2000.000000 r_1_1_5 > -999.706589
s_2_1 + s_2_5 + 1000 r_2_1_5 >= 2
- s_2_1 - s_2_5 - 1000 r_2_1_5 >= -1001
t_2_1 - t_2_5 - 1000.000000 u_2_1_5 - 0.000000 s_2_5  + 0.000000 s_2_8  + 2000.000000 r_2_1_5 > -999.596311
t_1_6 - t_1_1 - 1000.000000 s_1_1  + 0.000000 s_1_8  + 0.000000 s_1_7  > -999.344922
t_1_6 - t_2_1 - 1000.000000 s_2_1  + 0.000000 s_2_8  + 0.000000 s_2_7  > -999.055417
t_2_6 - t_1_1 - 1000.000000 s_1_1  + 0.000000 s_1_8  + 0.000000 s_1_7  > -999.344922
t_2_6 - t_2_1 - 1000.000000 s_2_1  + 0.000000 s_2_8  + 0.000000 s_2_7  > -999.055417
t_1_1 - t_1_7 - 1000.000000 s_1_7  > -999.217100
t_1_1 - t_2_7 - 1000.000000 s_2_7  > -998.846889
t_2_1 - t_1_7 - 1000.000000 s_1_7  > -999.217100
t_2_1 - t_2_7 - 1000.000000 s_2_7  > -998.846889
t_1_1 - t_1_8 - 1000.000000 s_1_8  > -999.227600
t_1_1 - t_2_8 - 1000.000000 s_2_8  > -998.820173
t_2_1 - t_1_8 - 1000.000000 s_1_8  > -999.227600
t_2_1 - t_2_8 - 1000.000000 s_2_8  > -998.820173
s_1_2 + s_1_1 + 1000 r_1_1_2 >= 2
- s_1_2 - s_1_1 - 1000 r_1_1_2 >= -1001
t_1_2 - t_1_1 + 1000.000000 u_1_1_2 - 0.000000 s_1_1  + 0.000000 s_1_8  + 0.000000 s_1_7  + 2000.000000 r_1_1_2 > 0.655078
s_2_2 + s_2_1 + 1000 r_2_1_2 >= 2
- s_2_2 - s_2_1 - 1000 r_2_1_2 >= -1001
t_2_2 - t_2_1 + 1000.000000 u_2_1_2 - 0.000000 s_2_1  + 0.000000 s_2_8  + 0.000000 s_2_7  + 2000.000000 r_2_1_2 > 0.944583
s_1_2 + s_1_3 + 1000 r_1_2_3 >= 2
- s_1_2 - s_1_3 - 1000 r_1_2_3 >= -1001
t_1_2 - t_1_3 - 1000.000000 u_1_2_3 - 0.000000 s_1_3  + 0.000000 s_1_8  + 0.000000 s_1_7  + 2000.000000 r_1_2_3 > -999.950300
s_2_2 + s_2_3 + 1000 r_2_2_3 >= 2
- s_2_2 - s_2_3 - 1000 r_2_2_3 >= -1001
t_2_2 - t_2_3 - 1000.000000 u_2_2_3 - 0.000000 s_2_3  + 0.000000 s_2_8  + 0.000000 s_2_7  + 2000.000000 r_2_2_3 > -999.898508
s_1_2 + s_1_4 + 1000 r_1_2_4 >= 2
- s_1_2 - s_1_4 - 1000 r_1_2_4 >= -1001
t_1_2 - t_1_4 - 1000.000000 u_1_2_4 - 0.000000 s_1_4  + 0.000000 s_1_7  + 2000.000000 r_1_2_4 > -999.928956
s_2_2 + s_2_4 + 1000 r_2_2_4 >= 2
- s_2_2 - s_2_4 - 1000 r_2_2_4 >= -1001
t_2_2 - t_2_4 - 1000.000000 u_2_2_4 - 0.000000 s_2_4  + 0.000000 s_2_7  + 2000.000000 r_2_2_4 > -999.861422
s_1_2 + s_1_5 + 1000 r_1_2_5 >= 2
- s_1_2 - s_1_5 - 1000 r_1_2_5 >= -1001
t_1_2 - t_1_5 - 1000.000000 u_1_2_5 - 0.000000 s_1_5  + 0.000000 s_1_8  + 2000.000000 r_1_2_5 > -999.706589
s_2_2 + s_2_5 + 1000 r_2_2_5 >= 2
- s_2_2 - s_2_5 - 1000 r_2_2_5 >= -1001
t_2_2 - t_2_5 - 1000.000000 u_2_2_5 - 0.000000 s_2_5  + 0.000000 s_2_8  + 2000.000000 r_2_2_5 > -999.596311
t_1_6 - t_1_2 - 1000.000000 s_1_2  + 0.000000 s_1_7  > -999.357631
t_1_6 - t_2_2 - 1000.000000 s_2_2  + 0.000000 s_2_7  > -999.109941
t_2_6 - t_1_2 - 1000.000000 s_1_2  + 0.000000 s_1_7  > -999.357631
t_2_6 - t_2_2 - 1000.000000 s_2_2  + 0.000000 s_2_7  > -999.109941
t_1_2 - t_1_7 - 1000.000000 s_1_7  > -999.217100
t_1_2 - t_2_7 - 1000.000000 s_2_7  > -998.846889
t_2_2 - t_1_7 - 1000.000000 s_1_7  > -999.217100
t_2_2 - t_2_7 - 1000.000000 s_2_7  > -998.846889
s_1_2 + s_1_8 + 1000 r_1_2_8 >= 2
- s_1_2 - s_1_8 - 1000 r_1_2_8 >= -1001
t_1_2 - t_1_8 - 1000.000000 u_1_2_8 - 0.000000 s_1_8  + 2000.000000 r_1_2_8 > -999.227600
s_2_2 + s_2_8 + 1000 r_2_2_8 >= 2
- s_2_2 - s_2_8 - 1000 r_2_2_8 >= -1001
t_2_2 - t_2_8 - 1000.000000 u_2_2_8 - 0.000000 s_2_8  + 2000.000000 r_2_2_8 > -998.820173
s_1_3 + s_1_1 + 1000 r_1_1_3 >= 2
- s_1_3 - s_1_1 - 1000 r_1_1_3 >= -1001
t_1_3 - t_1_1 + 1000.000000 u_1_1_3 - 0.000000 s_1_1  + 0.000000 s_1_8  + 0.000000 s_1_7  + 2000.000000 r_1_1_3 > 0.655078
s_2_3 + s_2_1 + 1000 r_2_1_3 >= 2
- s_2_3 - s_2_1 - 1000 r_2_1_3 >= -1001
t_2_3 - t_2_1 + 1000.000000 u_2_1_3 - 0.000000 s_2_1  + 0.000000 s_2_8  + 0.000000 s_2_7  + 2000.000000 r_2_1_3 > 0.944583
s_1_3 + s_1_2 + 1000 r_1_2_3 >= 2
- s_1_3 - s_1_2 - 1000 r_1_2_3 >= -1001
t_1_3 - t_1_2 + 1000.000000 u_1_2_3 - 0.000000 s_1_2  + 0.000000 s_1_7  + 2000.000000 r_1_2_3 > 0.642369
s_2_3 + s_2_2 + 1000 r_2_2_3 >= 2
- s_2_3 - s_2_2 - 1000 r_2_2_3 >= -1001
t_2_3 - t_2_2 + 1000.000000 u_2_2_3 - 0.000000 s_2_2  + 0.000000 s_2_7  + 2000.000000 r_2_2_3 > 0.890059
s_1_3 + s_1_4 + 1000 r_1_3_4 >= 2
- s_1_3 - s_1_4 - 1000 r_1_3_4 >= -1001
t_1_3 - t_1_4 - 1000.000000 u_1_3_4 - 0.000000 s_1_4  + 0.000000 s_1_7  + 2000.000000 r_1_3_4 > -999.928956
s_2_3 + s_2_4 + 1000 r_2_3_4 >= 2
- s_2_3 - s_2_4 - 1000 r_2_3_4 >= -1001
t_2_3 - t_2_4 - 1000.000000 u_2_3_4 - 0.000000 s_2_4  + 0.000000 s_2_7  + 2000.000000 r_2_3_4 > -999.861422
s_1_3 + s_1_5 + 1000 r_1_3_5 >= 2
- s_1_3 - s_1_5 - 1000 r_1_3_5 >= -1001
t_1_3 - t_1_5 - 1000.000000 u_1_3_5 - 0.000000 s_1_5  + 0.000000 s_1_8  + 2000.000000 r_1_3_5 > -999.706589
s_2_3 + s_2_5 + 1000 r_2_3_5 >= 2
- s_2_3 - s_2_5 - 1000 r_2_3_5 >= -1001
t_2_3 - t_2_5 - 1000.000000 u_2_3_5 - 0.000000 s_2_5  + 0.000000 s_2_8  + 2000.000000 r_2_3_5 > -999.596311
t_1_6 - t_1_3 - 1000.000000 s_1_3  + 0.000000 s_1_8  + 0.000000 s_1_7  > -999.950300
t_1_6 - t_2_3 - 1000.000000 s_2_3  + 0.000000 s_2_8  + 0.000000 s_2_7  > -999.898508
t_2_6 - t_1_3 - 1000.000000 s_1_3  + 0.000000 s_1_8  + 0.000000 s_1_7  > -999.950300
t_2_6 - t_2_3 - 1000.000000 s_2_3  + 0.000000 s_2_8  + 0.000000 s_2_7  > -999.898508
t_1_3 - t_1_7 - 1000.000000 s_1_7  > -999.217100
t_1_3 - t_2_7 - 1000.000000 s_2_7  > -998.846889
t_2_3 - t_1_7 - 1000.000000 s_1_7  > -999.217100
t_2_3 - t_2_7 - 1000.000000 s_2_7  > -998.846889
t_1_3 - t_1_8 - 1000.000000 s_1_8  > -999.227600
t_1_3 - t_2_8 - 1000.000000 s_2_8  > -998.820173
t_2_3 - t_1_8 - 1000.000000 s_1_8  > -999.227600
t_2_3 - t_2_8 - 1000.000000 s_2_8  > -998.820173
s_1_4 + s_1_1 + 1000 r_1_1_4 >= 2
- s_1_4 - s_1_1 - 1000 r_1_1_4 >= -1001
t_1_4 - t_1_1 + 1000.000000 u_1_1_4 - 0.000000 s_1_1  + 0.000000 s_1_8  + 0.000000 s_1_7  + 2000.000000 r_1_1_4 > 0.655078
s_2_4 + s_2_1 + 1000 r_2_1_4 >= 2
- s_2_4 - s_2_1 - 1000 r_2_1_4 >= -1001
t_2_4 - t_2_1 + 1000.000000 u_2_1_4 - 0.000000 s_2_1  + 0.000000 s_2_8  + 0.000000 s_2_7  + 2000.000000 r_2_1_4 > 0.944583
s_1_4 + s_1_2 + 1000 r_1_2_4 >= 2
- s_1_4 - s_1_2 - 1000 r_1_2_4 >= -1001
t_1_4 - t_1_2 + 1000.000000 u_1_2_4 - 0.000000 s_1_2  + 0.000000 s_1_7  + 2000.000000 r_1_2_4 > 0.642369
s_2_4 + s_2_2 + 1000 r_2_2_4 >= 2
- s_2_4 - s_2_2 - 1000 r_2_2_4 >= -1001
t_2_4 - t_2_2 + 1000.000000 u_2_2_4 - 0.000000 s_2_2  + 0.000000 s_2_7  + 2000.000000 r_2_2_4 > 0.890059
s_1_4 + s_1_3 + 1000 r_1_3_4 >= 2
- s_1_4 - s_1_3 - 1000 r_1_3_4 >= -1001
t_1_4 - t_1_3 + 1000.000000 u_1_3_4 - 0.000000 s_1_3  + 0.000000 s_1_8  + 0.000000 s_1_7  + 2000.000000 r_1_3_4 > 0.049700
s_2_4 + s_2_3 + 1000 r_2_3_4 >= 2
- s_2_4 - s_2_3 - 1000 r_2_3_4 >= -1001
t_2_4 - t_2_3 + 1000.000000 u_2_3_4 - 0.000000 s_2_3  + 0.000000 s_2_8  + 0.000000 s_2_7  + 2000.000000 r_2_3_4 > 0.101492
s_1_4 + s_1_5 + 1000 r_1_4_5 >= 2
- s_1_4 - s_1_5 - 1000 r_1_4_5 >= -1001
t_1_4 - t_1_5 - 1000.000000 u_1_4_5 - 0.000000 s_1_5  + 0.000000 s_1_8  + 2000.000000 r_1_4_5 > -999.706589
s_2_4 + s_2_5 + 1000 r_2_4_5 >= 2
- s_2_4 - s_2_5 - 1000 r_2_4_5 >= -1001
t_2_4 - t_2_5 - 1000.000000 u_2_4_5 - 0.000000 s_2_5  + 0.000000 s_2_8  + 2000.000000 r_2_4_5 > -999.596311
t_1_6 - t_1_4 - 1000.000000 s_1_4  + 0.000000 s_1_7  > -999.928956
t_1_6 - t_2_4 - 1000.000000 s_2_4  + 0.000000 s_2_7  > -999.861422
t_2_6 - t_1_4 - 1000.000000 s_1_4  + 0.000000 s_1_7  > -999.928956
t_2_6 - t_2_4 - 1000.000000 s_2_4  + 0.000000 s_2_7  > -999.861422
t_1_4 - t_1_7 - 1000.000000 s_1_7  > -999.217100
t_1_4 - t_2_7 - 1000.000000 s_2_7  > -998.846889
t_2_4 - t_1_7 - 1000.000000 s_1_7  > -999.217100
t_2_4 - t_2_7 - 1000.000000 s_2_7  > -998.846889
s_1_4 + s_1_8 + 1000 r_1_4_8 >= 2
- s_1_4 - s_1_8 - 1000 r_1_4_8 >= -1001
t_1_4 - t_1_8 - 1000.000000 u_1_4_8 - 0.000000 s_1_8  + 2000.000000 r_1_4_8 > -999.227600
s_2_4 + s_2_8 + 1000 r_2_4_8 >= 2
- s_2_4 - s_2_8 - 1000 r_2_4_8 >= -1001
t_2_4 - t_2_8 - 1000.000000 u_2_4_8 - 0.000000 s_2_8  + 2000.000000 r_2_4_8 > -998.820173
s_1_5 + s_1_1 + 1000 r_1_1_5 >= 2
- s_1_5 - s_1_1 - 1000 r_1_1_5 >= -1001
t_1_5 - t_1_1 + 1000.000000 u_1_1_5 - 0.000000 s_1_1  + 0.000000 s_1_8  + 0.000000 s_1_7  + 2000.000000 r_1_1_5 > 0.655078
s_2_5 + s_2_1 + 1000 r_2_1_5 >= 2
- s_2_5 - s_2_1 - 1000 r_2_1_5 >= -1001
t_2_5 - t_2_1 + 1000.000000 u_2_1_5 - 0.000000 s_2_1  + 0.000000 s_2_8  + 0.000000 s_2_7  + 2000.000000 r_2_1_5 > 0.944583
s_1_5 + s_1_2 + 1000 r_1_2_5 >= 2
- s_1_5 - s_1_2 - 1000 r_1_2_5 >= -1001
t_1_5 - t_1_2 + 1000.000000 u_1_2_5 - 0.000000 s_1_2  + 0.000000 s_1_7  + 2000.000000 r_1_2_5 > 0.642369
s_2_5 + s_2_2 + 1000 r_2_2_5 >= 2
- s_2_5 - s_2_2 - 1000 r_2_2_5 >= -1001
t_2_5 - t_2_2 + 1000.000000 u_2_2_5 - 0.000000 s_2_2  + 0.000000 s_2_7  + 2000.000000 r_2_2_5 > 0.890059
s_1_5 + s_1_3 + 1000 r_1_3_5 >= 2
- s_1_5 - s_1_3 - 1000 r_1_3_5 >= -1001
t_1_5 - t_1_3 + 1000.000000 u_1_3_5 - 0.000000 s_1_3  + 0.000000 s_1_8  + 0.000000 s_1_7  + 2000.000000 r_1_3_5 > 0.049700
s_2_5 + s_2_3 + 1000 r_2_3_5 >= 2
- s_2_5 - s_2_3 - 1000 r_2_3_5 >= -1001
t_2_5 - t_2_3 + 1000.000000 u_2_3_5 - 0.000000 s_2_3  + 0.000000 s_2_8  + 0.000000 s_2_7  + 2000.000000 r_2_3_5 > 0.101492
s_1_5 + s_1_4 + 1000 r_1_4_5 >= 2
- s_1_5 - s_1_4 - 1000 r_1_4_5 >= -1001
t_1_5 - t_1_4 + 1000.000000 u_1_4_5 - 0.000000 s_1_4  + 0.000000 s_1_7  + 2000.000000 r_1_4_5 > 0.071044
s_2_5 + s_2_4 + 1000 r_2_4_5 >= 2
- s_2_5 - s_2_4 - 1000 r_2_4_5 >= -1001
t_2_5 - t_2_4 + 1000.000000 u_2_4_5 - 0.000000 s_2_4  + 0.000000 s_2_7  + 2000.000000 r_2_4_5 > 0.138578
t_1_6 - t_1_5 - 1000.000000 s_1_5  + 0.000000 s_1_8  > -999.706589
t_1_6 - t_2_5 - 1000.000000 s_2_5  + 0.000000 s_2_8  > -999.596311
t_2_6 - t_1_5 - 1000.000000 s_1_5  + 0.000000 s_1_8  > -999.706589
t_2_6 - t_2_5 - 1000.000000 s_2_5  + 0.000000 s_2_8  > -999.596311
s_1_5 + s_1_7 + 1000 r_1_5_7 >= 2
- s_1_5 - s_1_7 - 1000 r_1_5_7 >= -1001
t_1_5 - t_1_7 - 1000.000000 u_1_5_7 - 0.000000 s_1_7  + 2000.000000 r_1_5_7 > -999.217100
s_2_5 + s_2_7 + 1000 r_2_5_7 >= 2
- s_2_5 - s_2_7 - 1000 r_2_5_7 >= -1001
t_2_5 - t_2_7 - 1000.000000 u_2_5_7 - 0.000000 s_2_7  + 2000.000000 r_2_5_7 > -998.846889
t_1_5 - t_1_8 - 1000.000000 s_1_8  > -999.227600
t_1_5 - t_2_8 - 1000.000000 s_2_8  > -998.820173
t_2_5 - t_1_8 - 1000.000000 s_1_8  > -999.227600
t_2_5 - t_2_8 - 1000.000000 s_2_8  > -998.820173
t_1_6 - t_1_7 - 1000.000000 s_1_7  > -999.217100
t_1_6 - t_2_7 - 1000.000000 s_2_7  > -998.846889
t_2_6 - t_1_7 - 1000.000000 s_1_7  > -999.217100
t_2_6 - t_2_7 - 1000.000000 s_2_7  > -998.846889
s_1_7 + s_1_5 + 1000 r_1_5_7 >= 2
- s_1_7 - s_1_5 - 1000 r_1_5_7 >= -1001
t_1_7 - t_1_5 + 1000.000000 u_1_5_7 - 0.000000 s_1_5  + 0.000000 s_1_8  + 2000.000000 r_1_5_7 > 0.293411
s_2_7 + s_2_5 + 1000 r_2_5_7 >= 2
- s_2_7 - s_2_5 - 1000 r_2_5_7 >= -1001
t_2_7 - t_2_5 + 1000.000000 u_2_5_7 - 0.000000 s_2_5  + 0.000000 s_2_8  + 2000.000000 r_2_5_7 > 0.403689
s_1_7 + s_1_8 + 1000 r_1_7_8 >= 2
- s_1_7 - s_1_8 - 1000 r_1_7_8 >= -1001
t_1_7 - t_1_8 - 1000.000000 u_1_7_8 - 0.000000 s_1_8  + 2000.000000 r_1_7_8 > -999.227600
s_2_7 + s_2_8 + 1000 r_2_7_8 >= 2
- s_2_7 - s_2_8 - 1000 r_2_7_8 >= -1001
t_2_7 - t_2_8 - 1000.000000 u_2_7_8 - 0.000000 s_2_8  + 2000.000000 r_2_7_8 > -998.820173
s_1_8 + s_1_2 + 1000 r_1_2_8 >= 2
- s_1_8 - s_1_2 - 1000 r_1_2_8 >= -1001
t_1_8 - t_1_2 + 1000.000000 u_1_2_8 - 0.000000 s_1_2  + 0.000000 s_1_7  + 2000.000000 r_1_2_8 > 0.642369
s_2_8 + s_2_2 + 1000 r_2_2_8 >= 2
- s_2_8 - s_2_2 - 1000 r_2_2_8 >= -1001
t_2_8 - t_2_2 + 1000.000000 u_2_2_8 - 0.000000 s_2_2  + 0.000000 s_2_7  + 2000.000000 r_2_2_8 > 0.890059
s_1_8 + s_1_4 + 1000 r_1_4_8 >= 2
- s_1_8 - s_1_4 - 1000 r_1_4_8 >= -1001
t_1_8 - t_1_4 + 1000.000000 u_1_4_8 - 0.000000 s_1_4  + 0.000000 s_1_7  + 2000.000000 r_1_4_8 > 0.071044
s_2_8 + s_2_4 + 1000 r_2_4_8 >= 2
- s_2_8 - s_2_4 - 1000 r_2_4_8 >= -1001
t_2_8 - t_2_4 + 1000.000000 u_2_4_8 - 0.000000 s_2_4  + 0.000000 s_2_7  + 2000.000000 r_2_4_8 > 0.138578
s_1_8 + s_1_7 + 1000 r_1_7_8 >= 2
- s_1_8 - s_1_7 - 1000 r_1_7_8 >= -1001
t_1_8 - t_1_7 + 1000.000000 u_1_7_8 - 0.000000 s_1_7  + 2000.000000 r_1_7_8 > 0.782900
s_2_8 + s_2_7 + 1000 r_2_7_8 >= 2
- s_2_8 - s_2_7 - 1000 r_2_7_8 >= -1001
t_2_8 - t_2_7 + 1000.000000 u_2_7_8 - 0.000000 s_2_7  + 2000.000000 r_2_7_8 > 1.153111
Binary
s_1_1
s_2_1
s_1_2
s_2_2
s_1_3
s_2_3
s_1_4
s_2_4
s_1_5
s_2_5
s_1_6
s_2_6
s_1_7
s_2_7
s_1_8
s_2_8
u_1_1_2
r_1_1_2
u_2_1_2
r_2_1_2
u_1_1_3
r_1_1_3
u_2_1_3
r_2_1_3
u_1_1_4
r_1_1_4
u_2_1_4
r_2_1_4
u_1_1_5
r_1_1_5
u_2_1_5
r_2_1_5
u_1_2_3
r_1_2_3
u_2_2_3
r_2_2_3
u_1_2_4
r_1_2_4
u_2_2_4
r_2_2_4
u_1_2_5
r_1_2_5
u_2_2_5
r_2_2_5
u_1_2_8
r_1_2_8
u_2_2_8
r_2_2_8
u_1_3_4
r_1_3_4
u_2_3_4
r_2_3_4
u_1_3_5
r_1_3_5
u_2_3_5
r_2_3_5
u_1_4_5
r_1_4_5
u_2_4_5
r_2_4_5
u_1_4_8
r_1_4_8
u_2_4_8
r_2_4_8
u_1_5_7
r_1_5_7
u_2_5_7
r_2_5_7
u_1_7_8
r_1_7_8
u_2_7_8
r_2_7_8

End
